Optimisation/Report/OptimMethJLB/homework/PnD_data/PnD_10/glp_10_07.dat
data;
param n := 10;
param w := 1 -24 2 36 3 42 4 -21 5 -46 6 -25 7 22 8 -39 9 25 10 30;
end;
